NAME : portcgen-26-7
COMMENT : portcgen N=26, seed=7
TYPE : TSP
DIMENSION : 26
EDGE_WEIGHT_TYPE : EUC_2D
NODE_COORD_SECTION
1 125233 -177120
2 -53203 317513
3 153383 -59028
4 -235499 -248358
5 -331891 84551
6 -17025 -166057
7 -379849 -208810
8 182141 182784
9 -9864 -220974
10 760 -35662
11 125934 -23193
12 22273 -306323
13 -475376 157760
14 -289864 195972
15 368458 271271
16 -90540 120472
17 -67773 -236898
18 -31370 -211450
19 -391346 -98468
20 271821 -138706
21 54872 331900
22 -57216 -218083
23 140589 172265
24 21314 -153658
25 -167520 -18569
26 -4909 -157699
